(set-info :status unsat)
(declare-const symbol_90 (_ BitVec 32))
(declare-const symbol_55 (_ BitVec 32))
(declare-const symbol_32 (_ BitVec 32))
(declare-const symbol_163 (_ BitVec 32))
(declare-const symbol_160 (_ BitVec 32))
(declare-const symbol_78 (_ BitVec 32))
(declare-const symbol_112 (_ BitVec 32))
(declare-const symbol_42 (_ BitVec 32))
(declare-const symbol_156 (_ BitVec 32))
(declare-const symbol_118 (_ BitVec 32))
(declare-const symbol_110 (_ BitVec 32))
(declare-const symbol_153 (_ BitVec 32))
(declare-const symbol_149 (_ BitVec 32))
(declare-const symbol_106 (_ BitVec 32))
(declare-const symbol_130 (_ BitVec 32))
(declare-const symbol_137 (_ BitVec 32))
(declare-const symbol_63 (_ BitVec 32))
(declare-const symbol_141 (_ BitVec 32))
(declare-const symbol_116 (_ BitVec 32))
(declare-const symbol_102 (_ BitVec 32))
(declare-const symbol_85 (_ BitVec 32))
(declare-const symbol_143 (_ BitVec 32))
(declare-const symbol_128 (_ BitVec 32))
(declare-const symbol_10 (_ BitVec 32))
(declare-const symbol_4 (_ BitVec 32))
(declare-const symbol_135 (_ BitVec 32))
(declare-const symbol_26 (_ BitVec 32))
(declare-const symbol_28 (_ BitVec 32))
(declare-const symbol_158 (_ BitVec 32))
(declare-const symbol_15 (_ BitVec 32))
(declare-const symbol_0 (_ BitVec 32))
(declare-const symbol_104 (_ BitVec 32))
(declare-const symbol_92 (_ BitVec 32))
(declare-const symbol_44 (_ BitVec 32))
(declare-const symbol_161 (_ BitVec 32))
(declare-const symbol_96 (_ BitVec 32))
(declare-const symbol_65 (_ BitVec 32))
(declare-const symbol_47 (_ BitVec 32))
(declare-const symbol_108 (_ BitVec 32))
(declare-const symbol_133 (_ BitVec 32))
(declare-const symbol_61 (_ BitVec 32))
(declare-const symbol_34 (_ BitVec 32))
(declare-const symbol_14 (_ BitVec 32))
(declare-const symbol_145 (_ BitVec 32))
(declare-const symbol_126 (_ BitVec 32))
(declare-const symbol_24 (_ BitVec 32))
(declare-const symbol_100 (_ BitVec 32))
(declare-const symbol_57 (_ BitVec 32))
(declare-const symbol_6 (_ BitVec 32))
(declare-const symbol_74 (_ BitVec 32))
(declare-const symbol_22 (_ BitVec 32))
(declare-const symbol_94 (_ BitVec 32))
(declare-const symbol_72 (_ BitVec 32))
(declare-const symbol_67 (_ BitVec 32))
(declare-const symbol_83 (_ BitVec 32))
(declare-const symbol_122 (_ BitVec 32))
(declare-const symbol_18 (_ BitVec 32))
(declare-const symbol_147 (_ BitVec 32))
(declare-const symbol_40 (_ BitVec 32))
(declare-const symbol_30 (_ BitVec 32))
(declare-const symbol_37 (_ BitVec 32))
(declare-const symbol_120 (_ BitVec 32))
(declare-const symbol_2 (_ BitVec 32))
(declare-const symbol_51 (_ BitVec 32))
(declare-const symbol_151 (_ BitVec 32))
(declare-const symbol_98 (_ BitVec 32))
(declare-const symbol_124 (_ BitVec 32))
(declare-const symbol_20 (_ BitVec 32))
(declare-const symbol_53 (_ BitVec 32))
(declare-const symbol_59 (_ BitVec 32))
(declare-const symbol_165 (_ BitVec 32))
(declare-const symbol_39 (_ BitVec 32))
(declare-const symbol_138 (_ BitVec 32))
(declare-const symbol_69 (_ BitVec 32))
(declare-const symbol_12 (_ BitVec 32))
(declare-const symbol_8 (_ BitVec 32))
(declare-const symbol_114 (_ BitVec 32))
(declare-const symbol_81 (_ BitVec 32))
(declare-const symbol_76 (_ BitVec 32))
(declare-const symbol_87 (_ BitVec 32))
(declare-const symbol_48 (_ BitVec 32))
(assert (= symbol_165 (_ bv5 32)))
(assert (not (not (= symbol_165 (_ bv13 32)))))
(assert (not (not (= symbol_163 (_ bv13 32)))))
(assert (not (not (= symbol_161 (_ bv13 32)))))
(assert (not (not (= symbol_160 (_ bv13 32)))))
(assert (not (not (= symbol_158 (_ bv13 32)))))
(assert (not (not (= symbol_156 (_ bv13 32)))))
(assert (not (not (= symbol_153 (_ bv13 32)))))
(assert (not (not (= symbol_151 (_ bv13 32)))))
(assert (not (not (= symbol_149 (_ bv13 32)))))
(assert (not (not (= symbol_147 (_ bv13 32)))))
(assert (not (not (= symbol_145 (_ bv13 32)))))
(assert (not (not (= symbol_143 (_ bv13 32)))))
(assert (not (not (= symbol_141 (_ bv13 32)))))
(assert (not (not (= symbol_138 (_ bv13 32)))))
(assert (not (not (= symbol_137 (_ bv13 32)))))
(assert (not (not (= symbol_135 (_ bv13 32)))))
(assert (not (not (= symbol_133 (_ bv13 32)))))
(assert (not (not (= symbol_130 (_ bv13 32)))))
(assert (not (not (= symbol_128 (_ bv13 32)))))
(assert (not (not (= symbol_126 (_ bv13 32)))))
(assert (not (not (= symbol_124 (_ bv13 32)))))
(assert (not (not (= symbol_122 (_ bv13 32)))))
(assert (not (not (= symbol_120 (_ bv13 32)))))
(assert (not (not (= symbol_118 (_ bv13 32)))))
(assert (not (not (= symbol_116 (_ bv13 32)))))
(assert (not (not (= symbol_114 (_ bv13 32)))))
(assert (not (not (= symbol_112 (_ bv13 32)))))
(assert (not (not (= symbol_110 (_ bv13 32)))))
(assert (not (not (= symbol_108 (_ bv13 32)))))
(assert (not (not (= symbol_106 (_ bv13 32)))))
(assert (not (not (= symbol_104 (_ bv13 32)))))
(assert (not (not (= symbol_102 (_ bv13 32)))))
(assert (not (not (= symbol_100 (_ bv13 32)))))
(assert (not (not (= symbol_98 (_ bv13 32)))))
(assert (not (not (= symbol_96 (_ bv13 32)))))
(assert (not (not (= symbol_94 (_ bv13 32)))))
(assert (not (not (= symbol_92 (_ bv13 32)))))
(assert (not (not (= symbol_90 (_ bv13 32)))))
(assert (not (not (= symbol_87 (_ bv13 32)))))
(assert (not (not (= symbol_85 (_ bv13 32)))))
(assert (not (not (= symbol_83 (_ bv13 32)))))
(assert (not (not (= symbol_81 (_ bv13 32)))))
(assert (not (not (= symbol_78 (_ bv13 32)))))
(assert (not (not (= symbol_76 (_ bv13 32)))))
(assert (not (not (= symbol_74 (_ bv13 32)))))
(assert (not (not (= symbol_72 (_ bv13 32)))))
(assert (not (not (= symbol_69 (_ bv13 32)))))
(assert (not (not (= symbol_67 (_ bv13 32)))))
(assert (not (not (= symbol_65 (_ bv13 32)))))
(assert (not (not (= symbol_63 (_ bv13 32)))))
(assert (not (not (= symbol_61 (_ bv13 32)))))
(assert (not (not (= symbol_59 (_ bv13 32)))))
(assert (not (not (= symbol_57 (_ bv13 32)))))
(assert (not (not (= symbol_55 (_ bv13 32)))))
(assert (not (not (= symbol_53 (_ bv13 32)))))
(assert (not (not (= symbol_51 (_ bv13 32)))))
(assert (not (not (= symbol_48 (_ bv13 32)))))
(assert (not (not (= symbol_47 (_ bv13 32)))))
(assert (not (not (= symbol_44 (_ bv13 32)))))
(assert (not (not (= symbol_42 (_ bv13 32)))))
(assert (not (not (= symbol_40 (_ bv13 32)))))
(assert (not (not (= symbol_39 (_ bv13 32)))))
(assert (not (not (= symbol_37 (_ bv13 32)))))
(assert (not (not (= symbol_34 (_ bv13 32)))))
(assert (not (not (= symbol_32 (_ bv13 32)))))
(assert (not (not (= symbol_30 (_ bv13 32)))))
(assert (not (not (= symbol_28 (_ bv13 32)))))
(assert (not (not (= symbol_26 (_ bv13 32)))))
(assert (not (not (= symbol_24 (_ bv13 32)))))
(assert (not (not (= symbol_22 (_ bv13 32)))))
(assert (not (not (= symbol_20 (_ bv13 32)))))
(assert (not (not (= symbol_18 (_ bv13 32)))))
(assert (not (not (= symbol_15 (_ bv13 32)))))
(assert (not (not (= symbol_14 (_ bv13 32)))))
(assert (not (not (= symbol_12 (_ bv13 32)))))
(assert (not (not (= symbol_10 (_ bv13 32)))))
(assert (not (not (= symbol_8 (_ bv13 32)))))
(assert (not (not (= symbol_6 (_ bv13 32)))))
(assert (not (not (= symbol_4 (_ bv13 32)))))
(assert (not (not (= symbol_2 (_ bv13 32)))))
(assert (not (not (= symbol_0 (_ bv1 32)))))
(assert (not (= symbol_0 (_ bv13 32))))
(check-sat)